LPs/20_8/20_8.lp
Maximize
 +1 y1 +1 y2 +1 y4 +1 y6 +1 y8
Subject To
#lineaire constraints (Krawchuk):
 +5 +1 y2 +-1 y4 +-3 y6 +-5 y8 >= 0
 +95 +-1 y2 +-1 y4 +31 y6 +95 y8 >= 0
 +285 +-7 y2 +7 y4 +-43 y6 +-285 y8 >= 0
+1 y8 >=0
+1 +-1 y1 >=0
+-1 +1 y1 >=0
