LPs/20_8/20_8.result
SDPA-GMP start at Thu Apr 19 17:59:18 2018
data      is 20_8.dat-s
parameter is ./param.sdpa
out       is 20_8.result
DENSE computation
   mu      thetaP  thetaD  objP      objD      alphaP  alphaD  beta 
 0 1.0e+10 1.0e+00 1.0e+00 +0.00e+00 -3.85e+07 8.0e-01 8.0e-01 3.00e-01
 1 3.0e+09 2.0e-01 2.0e-01 +8.82e+06 -7.70e+06 8.0e-01 8.0e-01 3.00e-01
 2 8.8e+08 4.0e-02 4.0e-02 +1.48e+07 -1.54e+06 8.0e-01 8.0e-01 3.00e-01
 3 2.6e+08 8.0e-03 8.0e-03 +2.17e+07 -3.08e+05 8.0e-01 8.0e-01 3.00e-01
 4 8.0e+07 1.6e-03 1.6e-03 +2.92e+07 -6.17e+04 8.0e-01 8.0e-01 3.00e-01
 5 2.6e+07 3.2e-04 3.2e-04 +2.92e+07 -1.24e+04 8.0e-01 8.1e-01 3.00e-01
 6 8.6e+06 6.4e-05 5.9e-05 +1.77e+07 -2.53e+03 8.0e-01 8.7e-01 3.00e-01
 7 2.9e+06 1.3e-05 7.8e-06 +9.77e+06 -5.56e+02 8.0e-01 1.0e+00 3.00e-01
 8 1.1e+06 2.6e-06 5.2e-156 +4.85e+06 -2.56e+02 8.0e-01 8.0e-01 3.00e-01
 9 4.2e+05 5.1e-07 1.0e-156 +2.01e+06 -2.56e+02 8.0e-01 8.0e-01 3.00e-01
10 1.7e+05 1.0e-07 2.1e-157 +8.07e+05 -2.56e+02 8.0e-01 8.0e-01 3.00e-01
11 6.5e+04 2.0e-08 4.2e-158 +3.20e+05 -2.56e+02 8.0e-01 8.0e-01 3.00e-01
12 2.5e+04 4.1e-09 8.6e-159 +1.26e+05 -2.56e+02 8.0e-01 8.0e-01 3.00e-01
13 1.0e+04 8.2e-10 7.2e-159 +4.95e+04 -2.56e+02 8.0e-01 8.0e-01 3.00e-01
14 3.9e+03 1.6e-10 5.0e-158 +1.93e+04 -2.56e+02 8.0e-01 8.0e-01 3.00e-01
15 1.5e+03 3.3e-11 7.5e-158 +7.41e+03 -2.56e+02 8.0e-01 8.0e+01 3.00e-01
16 5.5e+03 6.6e-12 9.1e-155 +2.75e+03 -2.56e+02 8.0e-01 8.0e-01 3.00e-01
17 2.1e+03 1.3e-12 1.9e-155 +5.59e+03 -2.56e+02 8.0e-01 8.0e-01 3.00e-01
18 8.4e+02 2.6e-13 1.1e-155 +2.97e+03 -2.56e+02 8.0e-01 8.0e-01 3.00e-01
19 3.3e+02 5.2e-14 5.4e-155 +1.19e+03 -2.56e+02 8.0e-01 8.0e+01 3.00e-01
20 1.2e+03 1.0e-14 7.7e-152 +3.50e+02 -2.56e+02 8.0e-01 8.0e-01 3.00e-01
21 4.6e+02 2.1e-15 1.4e-152 +9.90e+02 -2.56e+02 8.0e-01 8.0e-01 3.00e-01
22 1.8e+02 4.2e-16 6.8e-153 +4.34e+02 -2.56e+02 8.0e-01 8.0e-01 3.00e-01
23 7.1e+01 8.4e-17 8.3e-152 +5.48e+01 -2.56e+02 8.0e-01 8.0e-01 3.00e-01
24 2.8e+01 1.7e-17 1.4e-151 -1.26e+02 -2.56e+02 8.0e-01 8.0e+01 3.00e-01
25 9.8e+01 3.4e-18 6.9e-149 -2.03e+02 -2.56e+02 8.0e-01 8.0e-01 3.00e-01
26 3.9e+01 6.7e-19 9.4e-150 -1.51e+02 -2.56e+02 8.0e-01 8.0e-01 3.00e-01
27 1.5e+01 1.3e-19 2.0e-150 -1.98e+02 -2.56e+02 8.0e-01 8.0e+01 3.00e-01
28 5.4e+01 2.7e-20 1.3e-146 -2.30e+02 -2.56e+02 8.0e-01 8.0e-01 3.00e-01
29 2.1e+01 5.4e-21 2.8e-147 -1.99e+02 -2.56e+02 8.0e-01 8.0e-01 3.00e-01
30 8.3e+00 1.1e-21 2.2e-147 -2.24e+02 -2.56e+02 8.0e-01 8.0e+01 3.00e-01
31 2.9e+01 2.1e-22 1.2e-145 -2.42e+02 -2.56e+02 8.0e-01 8.0e-01 3.00e-01
32 1.2e+01 4.3e-23 3.8e-146 -2.25e+02 -2.56e+02 8.0e-01 8.0e+01 3.00e-01
33 4.1e+01 8.6e-24 7.1e-143 -2.39e+02 -2.56e+02 8.0e-01 8.0e-01 3.00e-01
34 1.6e+01 1.7e-24 7.1e-143 -2.13e+02 -2.56e+02 8.0e-01 8.0e-01 3.00e-01
35 6.3e+00 3.4e-25 7.1e-143 -2.32e+02 -2.56e+02 8.0e-01 8.0e+01 3.00e-01
36 2.2e+01 6.9e-26 7.1e-143 -2.45e+02 -2.56e+02 8.0e-01 8.0e+01 3.00e-01
37 8.0e+01 1.4e-26 4.0e-140 -2.32e+02 -2.56e+02 8.0e-01 8.0e-01 3.00e-01
38 3.1e+01 2.7e-27 5.0e-141 -1.74e+02 -2.56e+02 8.0e-01 8.0e-01 3.00e-01
39 1.2e+01 5.5e-28 2.0e-141 -2.10e+02 -2.56e+02 8.0e-01 8.0e-01 3.00e-01
40 4.8e+00 1.1e-28 1.6e-140 -2.35e+02 -2.56e+02 8.0e-01 8.0e+01 3.00e-01
41 1.7e+01 2.2e-29 5.6e-138 -2.47e+02 -2.56e+02 8.0e-01 8.0e-01 3.00e-01
42 6.7e+00 4.4e-30 1.2e-138 -2.38e+02 -2.56e+02 8.0e-01 8.0e-01 3.00e-01
43 2.6e+00 8.8e-31 6.4e-139 -2.46e+02 -2.56e+02 8.0e-01 8.0e-01 3.00e-01
44 1.0e+00 1.8e-31 1.6e-137 -2.51e+02 -2.56e+02 8.0e-01 8.0e+01 3.00e-01
45 3.7e+00 3.5e-32 1.3e-135 -2.54e+02 -2.56e+02 8.0e-01 8.0e-01 3.00e-01
46 1.4e+00 7.0e-33 1.6e-136 -2.52e+02 -2.56e+02 8.0e-01 8.0e+01 3.00e-01
47 5.1e+00 1.4e-33 1.9e-133 -2.54e+02 -2.56e+02 8.0e-01 8.0e-01 3.00e-01
48 2.0e+00 2.8e-34 2.7e-134 -2.51e+02 -2.56e+02 8.0e-01 8.0e-01 3.00e-01
49 7.9e-01 5.6e-35 1.6e-133 -2.53e+02 -2.56e+02 8.0e-01 8.0e+01 3.00e-01
50 2.8e+00 1.1e-35 1.2e-131 -2.55e+02 -2.56e+02 8.0e-01 8.0e-01 3.00e-01
51 1.1e+00 2.3e-36 7.0e-132 -2.53e+02 -2.56e+02 8.0e-01 8.0e-01 3.00e-01
52 4.3e-01 4.5e-37 6.4e-132 -2.54e+02 -2.56e+02 8.0e-01 8.0e-01 3.00e-01
53 1.7e-01 9.0e-38 1.3e-132 -2.55e+02 -2.56e+02 8.0e-01 8.0e-01 3.00e-01
54 6.6e-02 1.8e-38 2.6e-133 -2.56e+02 -2.56e+02 8.0e-01 8.0e-01 3.00e-01
55 2.6e-02 3.6e-39 5.1e-134 -2.56e+02 -2.56e+02 8.0e-01 8.0e-01 3.00e-01
56 1.0e-02 7.2e-40 1.2e-134 -2.56e+02 -2.56e+02 8.0e-01 8.0e-01 3.00e-01
57 4.0e-03 1.4e-40 3.1e-135 -2.56e+02 -2.56e+02 8.0e-01 8.0e+01 3.00e-01
58 1.4e-02 2.9e-41 4.8e-132 -2.56e+02 -2.56e+02 8.0e-01 8.0e+01 3.00e-01
59 5.1e-02 5.8e-42 3.6e-129 -2.56e+02 -2.56e+02 8.0e-01 8.0e-01 3.00e-01
60 2.0e-02 1.2e-42 2.8e-129 -2.56e+02 -2.56e+02 8.0e-01 8.0e+01 3.00e-01
61 7.1e-02 2.3e-43 2.2e-127 -2.56e+02 -2.56e+02 8.0e-01 8.0e+01 3.00e-01
62 2.5e-01 4.6e-44 4.5e-125 -2.56e+02 -2.56e+02 8.0e-01 8.0e-01 3.00e-01
63 9.9e-02 9.2e-45 1.6e-124 -2.56e+02 -2.56e+02 8.0e-01 8.0e+01 3.00e-01
64 3.5e-01 1.8e-45 1.3e-122 -2.56e+02 -2.56e+02 8.0e-01 8.0e-01 3.00e-01
65 1.4e-01 3.7e-46 2.6e-123 -2.56e+02 -2.56e+02 8.0e-01 8.0e-01 3.00e-01
66 5.4e-02 7.4e-47 1.3e-123 -2.56e+02 -2.56e+02 8.0e-01 8.0e-01 3.00e-01
67 2.1e-02 1.5e-47 5.0e-151 -2.56e+02 -2.56e+02 8.0e-01 8.0e-01 3.00e-01
68 8.3e-03 3.0e-48 1.0e-151 -2.56e+02 -2.56e+02 8.0e-01 8.0e+01 3.00e-01
69 3.0e-02 5.9e-49 7.9e-150 -2.56e+02 -2.56e+02 8.0e-01 8.0e+01 3.00e-01
70 1.1e-01 1.2e-49 6.2e-148 -2.56e+02 -2.56e+02 8.0e-01 8.0e+01 3.00e-01
71 3.7e-01 2.4e-50 4.9e-146 -2.56e+02 -2.56e+02 8.0e-01 8.0e-01 3.00e-01
72 1.5e-01 4.7e-51 6.7e-119 -2.56e+02 -2.56e+02 8.0e-01 8.0e+01 3.00e-01
73 5.2e-01 9.4e-52 5.3e-117 -2.56e+02 -2.56e+02 8.0e-01 8.0e+01 3.00e-01
74 1.9e+00 1.9e-52 1.4e-114 -2.55e+02 -2.56e+02 8.0e-01 8.0e-01 3.00e-01
75 7.3e-01 3.8e-53 1.2e-115 -2.54e+02 -2.56e+02 8.0e-01 8.0e-01 3.00e-01
76 2.9e-01 7.6e-54 2.3e-115 -2.55e+02 -2.56e+02 8.0e-01 8.0e+01 3.00e-01
77 1.0e+00 1.5e-54 1.9e-113 -2.56e+02 -2.56e+02 8.0e-01 8.0e-01 3.00e-01
78 4.0e-01 3.0e-55 6.2e-114 -2.55e+02 -2.56e+02 8.0e-01 8.0e-01 3.00e-01
79 1.6e-01 6.0e-56 1.2e-114 -2.55e+02 -2.56e+02 8.0e-01 8.0e-01 3.00e-01
80 6.1e-02 1.2e-56 2.5e-115 -2.56e+02 -2.56e+02 8.0e-01 8.0e-01 3.00e-01
81 2.4e-02 2.4e-57 5.0e-116 -2.56e+02 -2.56e+02 8.0e-01 8.0e-01 3.00e-01
82 9.4e-03 4.8e-58 1.0e-116 -2.56e+02 -2.56e+02 8.0e-01 8.0e-01 3.00e-01
83 3.7e-03 9.7e-59 3.6e-117 -2.56e+02 -2.56e+02 8.0e-01 8.0e-01 3.00e-01
84 1.4e-03 1.9e-59 2.7e-118 -2.56e+02 -2.56e+02 8.0e-01 8.0e-01 3.00e-01
85 5.7e-04 3.9e-60 7.4e-116 -2.56e+02 -2.56e+02 8.0e-01 8.0e+01 3.00e-01
86 2.0e-03 7.7e-61 4.6e-113 -2.56e+02 -2.56e+02 8.0e-01 8.0e+01 3.00e-01
87 7.2e-03 1.5e-61 3.2e-110 -2.56e+02 -2.56e+02 8.0e-01 8.0e-01 3.00e-01
88 2.8e-03 3.1e-62 1.7e-110 -2.56e+02 -2.56e+02 8.0e-01 8.0e-01 3.00e-01
89 1.1e-03 6.2e-63 2.0e-109 -2.56e+02 -2.56e+02 8.0e-01 8.0e+01 3.00e-01
90 3.9e-03 1.2e-63 1.2e-106 -2.56e+02 -2.56e+02 8.0e-01 1.0e+00 3.00e-01
91 1.6e-03 2.5e-64 2.9e-160 -2.56e+02 -2.56e+02 8.0e-01 8.0e+01 3.00e-01
92 5.6e-03 5.0e-65 1.0e-121 -2.56e+02 -2.56e+02 8.0e-01 8.0e-01 3.00e-01
93 2.2e-03 9.9e-66 1.8e-110 -2.56e+02 -2.56e+02 8.0e-01 8.0e+01 3.00e-01
94 7.8e-03 2.0e-66 2.9e-157 -2.56e+02 -2.56e+02 8.0e-01 8.0e+01 3.00e-01
95 2.8e-02 4.0e-67 2.3e-155 -2.56e+02 -2.56e+02 8.0e-01 8.0e+01 3.00e-01
96 9.9e-02 7.9e-68 1.9e-102 -2.56e+02 -2.56e+02 8.0e-01 1.0e+00 3.00e-01
97 4.0e-02 1.6e-68 2.4e-104 -2.56e+02 -2.56e+02 8.0e-01 1.0e+00 3.00e-01
98 1.6e-02 3.2e-69 2.4e-104 -2.56e+02 -2.56e+02 8.0e-01 1.0e+00 3.00e-01
99 6.3e-03 6.3e-70 2.8e-160 -2.56e+02 -2.56e+02 8.0e-01 8.0e+01 3.00e-01
100 2.3e-02 1.3e-70 2.3e-158 -2.56e+02 -2.56e+02 8.0e-01 8.0e+01 3.00e-01
101 8.0e-02 2.5e-71 1.8e-156 -2.56e+02 -2.56e+02 8.0e-01 8.0e+01 3.00e-01
102 2.9e-01 5.1e-72 1.4e-154 -2.56e+02 -2.56e+02 8.0e-01 8.0e+01 3.00e-01
103 1.0e+00 1.0e-72 1.1e-152 -2.56e+02 -2.56e+02 8.0e-01 8.0e-01 3.00e-01
104 4.0e-01 2.0e-73 1.1e-95 -2.55e+02 -2.56e+02 8.0e-01 1.0e+00 3.00e-01
105 1.6e-01 4.1e-74 4.6e-100 -2.55e+02 -2.56e+02 8.0e-01 1.0e+00 3.00e-01
106 6.4e-02 8.1e-75 2.0e-100 -2.56e+02 -2.56e+02 8.0e-01 1.0e+00 3.00e-01
107 2.6e-02 1.6e-75 3.4e-101 -2.56e+02 -2.56e+02 8.0e-01 1.0e+00 3.00e-01
108 1.0e-02 3.2e-76 4.7e-102 -2.56e+02 -2.56e+02 8.0e-01 1.0e+00 3.00e-01
109 4.1e-03 6.5e-77 1.6e-100 -2.56e+02 -2.56e+02 8.0e-01 1.0e+00 3.00e-01
110 1.6e-03 1.3e-77 1.6e-99 -2.56e+02 -2.56e+02 8.0e-01 1.0e+00 3.00e-01
111 6.5e-04 2.6e-78 3.8e-98 -2.56e+02 -2.56e+02 8.0e-01 1.0e+00 3.00e-01
112 2.6e-04 5.2e-79 3.8e-98 -2.56e+02 -2.56e+02 8.0e-01 1.0e+00 3.00e-01
113 1.0e-04 1.0e-79 1.7e-96 -2.56e+02 -2.56e+02 8.0e-01 1.0e+00 3.00e-01
114 4.2e-05 2.1e-80 1.4e-95 -2.56e+02 -2.56e+02 8.0e-01 1.0e+00 3.00e-01
115 1.7e-05 4.2e-81 1.3e-94 -2.56e+02 -2.56e+02 8.0e-01 1.0e+00 3.00e-01
116 6.7e-06 8.3e-82 1.3e-95 -2.56e+02 -2.56e+02 8.0e-01 1.0e+00 3.00e-01
117 2.7e-06 1.7e-82 1.4e-92 -2.56e+02 -2.56e+02 8.0e-01 1.0e+00 3.00e-01
118 1.1e-06 3.3e-83 1.5e-91 -2.56e+02 -2.56e+02 8.0e-01 1.0e+00 3.00e-01
119 4.3e-07 6.6e-84 2.4e-104 -2.56e+02 -2.56e+02 8.0e-01 1.0e+00 3.00e-01
120 1.7e-07 1.3e-84 2.7e-103 -2.56e+02 -2.56e+02 8.0e-01 1.0e+00 3.00e-01
121 6.9e-08 2.7e-85 4.8e-103 -2.56e+02 -2.56e+02 8.0e-01 1.0e+00 3.00e-01
122 2.7e-08 5.3e-86 4.4e-102 -2.56e+02 -2.56e+02 8.0e-01 1.0e+00 3.00e-01
123 1.1e-08 1.1e-86 1.6e-101 -2.56e+02 -2.56e+02 8.0e-01 1.0e+00 3.00e-01
124 4.4e-09 2.1e-87 6.4e-101 -2.56e+02 -2.56e+02 8.0e-01 1.0e+00 3.00e-01
125 1.8e-09 4.3e-88 6.4e-94 -2.56e+02 -2.56e+02 8.0e-01 1.0e+00 3.00e-01
126 7.0e-10 8.5e-89 9.4e-95 -2.56e+02 -2.56e+02 8.0e-01 1.0e+00 3.00e-01
127 2.8e-10 1.7e-89 2.0e-94 -2.56e+02 -2.56e+02 8.0e-01 1.0e+00 3.00e-01
128 1.1e-10 3.4e-90 2.9e-95 -2.56e+02 -2.56e+02 8.0e-01 1.0e+00 3.00e-01
129 4.5e-11 6.8e-91 6.7e-95 -2.56e+02 -2.56e+02 8.0e-01 1.0e+00 3.00e-01
130 1.8e-11 1.4e-91 5.5e-95 -2.56e+02 -2.56e+02 8.0e-01 1.0e+00 3.00e-01
131 7.2e-12 2.7e-92 2.6e-95 -2.56e+02 -2.56e+02 8.0e-01 1.0e+00 3.00e-01
132 2.9e-12 5.4e-93 1.0e-94 -2.56e+02 -2.56e+02 8.0e-01 1.0e+00 3.00e-01
133 1.2e-12 1.1e-93 3.0e-94 -2.56e+02 -2.56e+02 8.0e-01 1.0e+00 3.00e-01
134 4.6e-13 2.2e-94 8.9e-94 -2.56e+02 -2.56e+02 8.0e-01 1.0e+00 3.00e-01
135 1.8e-13 4.4e-95 3.5e-93 -2.56e+02 -2.56e+02 8.0e-01 1.0e+00 3.00e-01
136 7.4e-14 8.7e-96 9.0e-92 -2.56e+02 -2.56e+02 8.0e-01 1.0e+00 3.00e-01
137 2.9e-14 1.7e-96 2.2e-91 -2.56e+02 -2.56e+02 8.0e-01 1.0e+00 3.00e-01
138 1.2e-14 3.5e-97 4.2e-161 -2.56e+02 -2.56e+02 8.0e-01 8.0e+01 3.00e-01
139 4.2e-14 7.0e-98 3.0e-159 -2.56e+02 -2.56e+02 8.0e-01 8.0e+01 3.00e-01
140 1.5e-13 1.4e-98 3.6e-83 -2.56e+02 -2.56e+02 8.0e-01 1.0e+00 3.00e-01
141 6.0e-14 2.8e-99 4.5e-85 -2.56e+02 -2.56e+02 8.0e-01 1.0e+00 3.00e-01
142 2.4e-14 5.6e-100 1.3e-84 -2.56e+02 -2.56e+02 8.0e-01 1.0e+00 3.00e-01
143 9.6e-15 1.1e-100 7.1e-84 -2.56e+02 -2.56e+02 8.0e-01 1.0e+00 3.00e-01
144 3.8e-15 2.2e-101 9.4e-83 -2.56e+02 -2.56e+02 8.0e-01 1.0e+00 3.00e-01
145 1.5e-15 4.5e-102 7.5e-82 -2.56e+02 -2.56e+02 8.0e-01 1.0e+00 3.00e-01
146 6.1e-16 8.9e-103 8.9e-85 -2.56e+02 -2.56e+02 8.0e-01 1.0e+00 3.00e-01
147 2.4e-16 1.8e-103 1.3e-84 -2.56e+02 -2.56e+02 8.0e-01 1.0e+00 3.00e-01
148 9.8e-17 3.6e-104 5.8e-84 -2.56e+02 -2.56e+02 8.0e-01 1.0e+00 3.00e-01
149 3.9e-17 7.1e-105 3.8e-83 -2.56e+02 -2.56e+02 8.0e-01 1.0e+00 3.00e-01
150 1.6e-17 1.4e-105 7.1e-83 -2.56e+02 -2.56e+02 8.0e-01 1.0e+00 3.00e-01
151 6.3e-18 2.9e-106 5.4e-82 -2.56e+02 -2.56e+02 1.1e+00 1.0e+00 3.00e-01
152 1.6e-18 2.9e-106 8.7e-160 -2.56e+02 -2.56e+02 9.0e-01 8.8e-01 1.00e-01
153 3.3e-19 2.9e-106 7.2e-160 -2.56e+02 -2.56e+02 9.0e-01 8.8e-01 1.00e-01
154 6.5e-20 2.9e-106 3.1e-160 -2.56e+02 -2.56e+02 9.0e-01 8.8e-01 1.00e-01
155 1.3e-20 2.9e-106 3.2e-160 -2.56e+02 -2.56e+02 9.0e-01 8.8e-01 1.00e-01
156 2.6e-21 2.9e-106 5.1e-160 -2.56e+02 -2.56e+02 9.0e-01 8.8e-01 1.00e-01
157 5.2e-22 2.9e-106 5.5e-161 -2.56e+02 -2.56e+02 9.0e-01 8.8e-01 1.00e-01
158 1.0e-22 2.9e-106 1.8e-160 -2.56e+02 -2.56e+02 9.0e-01 8.8e-01 1.00e-01
159 2.1e-23 2.9e-106 1.0e-160 -2.56e+02 -2.56e+02 9.0e-01 8.8e-01 1.00e-01
160 4.2e-24 2.9e-106 1.1e-161 -2.56e+02 -2.56e+02 9.0e-01 8.8e-01 1.00e-01
161 8.3e-25 2.9e-106 5.4e-161 -2.56e+02 -2.56e+02 9.0e-01 8.8e-01 1.00e-01
162 1.7e-25 2.9e-106 3.5e-161 -2.56e+02 -2.56e+02 9.0e-01 8.8e-01 1.00e-01
163 3.3e-26 2.9e-106 5.4e-161 -2.56e+02 -2.56e+02 9.0e-01 8.8e-01 1.00e-01
164 6.7e-27 2.9e-106 1.5e-161 -2.56e+02 -2.56e+02 9.0e-01 8.8e-01 1.00e-01
165 1.3e-27 2.9e-106 2.9e-161 -2.56e+02 -2.56e+02 9.0e-01 8.8e-01 1.00e-01
166 2.7e-28 2.9e-106 2.4e-161 -2.56e+02 -2.56e+02 9.0e-01 8.8e-01 1.00e-01
167 5.3e-29 2.9e-106 5.8e-161 -2.56e+02 -2.56e+02 9.0e-01 8.8e-01 1.00e-01
168 1.1e-29 2.9e-106 9.2e-161 -2.56e+02 -2.56e+02 9.0e-01 8.8e-01 1.00e-01
169 2.1e-30 2.9e-106 9.7e-162 -2.56e+02 -2.56e+02 9.0e-01 8.8e-01 1.00e-01
170 4.3e-31 2.9e-106 8.5e-161 -2.56e+02 -2.56e+02 9.0e-01 8.8e-01 1.00e-01
171 8.5e-32 2.9e-106 1.2e-160 -2.56e+02 -2.56e+02 9.0e-01 8.8e-01 1.00e-01
172 1.7e-32 2.9e-106 9.7e-162 -2.56e+02 -2.56e+02 9.0e-01 8.8e-01 1.00e-01
173 3.4e-33 2.9e-106 1.2e-160 -2.56e+02 -2.56e+02 9.0e-01 8.8e-01 1.00e-01
174 6.8e-34 2.9e-106 9.4e-161 -2.56e+02 -2.56e+02 9.0e-01 8.8e-01 1.00e-01
175 1.4e-34 2.9e-106 5.1e-161 -2.56e+02 -2.56e+02 9.0e-01 8.8e-01 1.00e-01
176 2.7e-35 2.9e-106 8.5e-161 -2.56e+02 -2.56e+02 9.0e-01 8.8e-01 1.00e-01
177 5.5e-36 2.9e-106 4.2e-160 -2.56e+02 -2.56e+02 9.0e-01 8.8e-01 1.00e-01
178 1.1e-36 2.9e-106 1.3e-159 -2.56e+02 -2.56e+02 9.0e-01 8.8e-01 1.00e-01
179 2.2e-37 2.9e-106 1.8e-159 -2.56e+02 -2.56e+02 9.0e-01 8.8e-01 1.00e-01
180 4.4e-38 2.9e-106 1.2e-159 -2.56e+02 -2.56e+02 9.0e-01 8.8e-01 1.00e-01
181 8.7e-39 2.9e-106 1.1e-159 -2.56e+02 -2.56e+02 9.0e-01 8.8e-01 1.00e-01
182 1.7e-39 2.9e-106 5.3e-160 -2.56e+02 -2.56e+02 9.0e-01 8.8e-01 1.00e-01
183 3.5e-40 2.9e-106 1.6e-159 -2.56e+02 -2.56e+02 9.0e-01 8.8e-01 1.00e-01
184 7.0e-41 2.9e-106 7.8e-160 -2.56e+02 -2.56e+02 9.0e-01 8.8e-01 1.00e-01
185 1.4e-41 2.9e-106 1.9e-159 -2.56e+02 -2.56e+02 9.0e-01 8.8e-01 1.00e-01
186 2.8e-42 2.9e-106 2.5e-160 -2.56e+02 -2.56e+02 9.0e-01 8.8e-01 1.00e-01
187 5.6e-43 2.9e-106 2.4e-160 -2.56e+02 -2.56e+02 9.0e-01 8.8e-01 1.00e-01
188 1.1e-43 2.9e-106 2.3e-161 -2.56e+02 -2.56e+02 9.0e-01 8.8e-01 1.00e-01
189 2.2e-44 2.9e-106 8.6e-162 -2.56e+02 -2.56e+02 9.0e-01 8.8e-01 1.00e-01
190 4.5e-45 2.9e-106 2.3e-160 -2.56e+02 -2.56e+02 9.0e-01 8.8e-01 1.00e-01
191 8.9e-46 2.9e-106 1.9e-161 -2.56e+02 -2.56e+02 9.0e-01 8.8e-01 1.00e-01
192 1.8e-46 2.9e-106 2.0e-161 -2.56e+02 -2.56e+02 9.0e-01 8.8e-01 1.00e-01
193 3.6e-47 2.9e-106 2.0e-160 -2.56e+02 -2.56e+02 9.0e-01 8.8e-01 1.00e-01
194 7.2e-48 2.9e-106 6.0e-161 -2.56e+02 -2.56e+02 9.0e-01 8.8e-01 1.00e-01
195 1.4e-48 2.9e-106 6.9e-161 -2.56e+02 -2.56e+02 9.0e-01 8.8e-01 1.00e-01
196 2.9e-49 2.9e-106 7.3e-161 -2.56e+02 -2.56e+02 9.0e-01 8.8e-01 1.00e-01
197 5.7e-50 2.9e-106 9.2e-161 -2.56e+02 -2.56e+02 9.0e-01 8.8e-01 1.00e-01
198 1.1e-50 2.9e-106 7.7e-162 -2.56e+02 -2.56e+02 9.0e-01 8.8e-01 1.00e-01
199 2.3e-51 2.9e-106 1.7e-161 -2.56e+02 -2.56e+02 9.0e-01 8.8e-01 1.00e-01
200 4.6e-52 2.9e-106 1.3e-160 -2.56e+02 -2.56e+02 9.0e-01 8.8e-01 1.00e-01
201 9.2e-53 2.9e-106 1.1e-160 -2.56e+02 -2.56e+02 9.0e-01 8.8e-01 1.00e-01
202 1.8e-53 2.9e-106 5.5e-161 -2.56e+02 -2.56e+02 9.0e-01 8.8e-01 1.00e-01
203 3.7e-54 2.9e-106 6.2e-161 -2.56e+02 -2.56e+02 9.0e-01 8.8e-01 1.00e-01
204 7.3e-55 2.9e-106 9.8e-160 -2.56e+02 -2.56e+02 9.0e-01 8.8e-01 1.00e-01
205 1.5e-55 2.9e-106 5.0e-160 -2.56e+02 -2.56e+02 9.0e-01 8.8e-01 1.00e-01
206 2.9e-56 2.9e-106 4.5e-160 -2.56e+02 -2.56e+02 9.0e-01 8.8e-01 1.00e-01
207 5.9e-57 2.9e-106 4.6e-161 -2.56e+02 -2.56e+02 9.0e-01 8.8e-01 1.00e-01
208 1.2e-57 2.9e-106 1.0e-159 -2.56e+02 -2.56e+02 9.0e-01 8.8e-01 1.00e-01
209 2.3e-58 2.9e-106 7.1e-160 -2.56e+02 -2.56e+02 9.0e-01 8.8e-01 1.00e-01
210 4.7e-59 2.9e-106 2.8e-160 -2.56e+02 -2.56e+02 9.0e-01 8.8e-01 1.00e-01
211 9.4e-60 2.9e-106 5.8e-160 -2.56e+02 -2.56e+02 9.0e-01 8.8e-01 1.00e-01
212 1.9e-60 2.9e-106 2.7e-161 -2.56e+02 -2.56e+02 9.0e-01 8.8e-01 1.00e-01
213 3.8e-61 2.9e-106 1.9e-161 -2.56e+02 -2.56e+02 9.0e-01 8.8e-01 1.00e-01
214 7.5e-62 2.9e-106 3.5e-161 -2.56e+02 -2.56e+02 9.0e-01 8.8e-01 1.00e-01
215 1.5e-62 2.9e-106 7.7e-162 -2.56e+02 -2.56e+02 9.0e-01 8.8e-01 1.00e-01
216 3.0e-63 2.9e-106 1.7e-160 -2.56e+02 -2.56e+02 9.0e-01 8.8e-01 1.00e-01
217 6.0e-64 2.9e-106 3.1e-161 -2.56e+02 -2.56e+02 9.0e-01 8.8e-01 1.00e-01
218 1.2e-64 2.9e-106 2.0e-161 -2.56e+02 -2.56e+02 9.0e-01 8.8e-01 1.00e-01
219 2.4e-65 2.9e-106 1.3e-161 -2.56e+02 -2.56e+02 9.0e-01 8.8e-01 1.00e-01
220 4.8e-66 2.9e-106 2.6e-161 -2.56e+02 -2.56e+02 9.0e-01 8.8e-01 1.00e-01
221 9.6e-67 2.9e-106 1.6e-161 -2.56e+02 -2.56e+02 9.0e-01 8.8e-01 1.00e-01
222 1.9e-67 2.9e-106 3.2e-161 -2.56e+02 -2.56e+02 9.0e-01 8.8e-01 1.00e-01
223 3.8e-68 2.9e-106 8.5e-161 -2.56e+02 -2.56e+02 9.0e-01 8.8e-01 1.00e-01
224 7.7e-69 2.9e-106 3.5e-161 -2.56e+02 -2.56e+02 9.0e-01 8.8e-01 1.00e-01
225 1.5e-69 2.9e-106 3.1e-161 -2.56e+02 -2.56e+02 9.0e-01 8.8e-01 1.00e-01
226 3.1e-70 2.9e-106 1.7e-161 -2.56e+02 -2.56e+02 9.0e-01 8.8e-01 1.00e-01
227 6.1e-71 2.9e-106 1.9e-161 -2.56e+02 -2.56e+02 9.0e-01 8.8e-01 1.00e-01
228 1.2e-71 2.9e-106 1.9e-161 -2.56e+02 -2.56e+02 9.0e-01 8.8e-01 1.00e-01
229 2.5e-72 2.9e-106 1.2e-160 -2.56e+02 -2.56e+02 9.0e-01 8.8e-01 1.00e-01
230 4.9e-73 2.9e-106 2.3e-161 -2.56e+02 -2.56e+02 9.0e-01 8.8e-01 1.00e-01
231 9.8e-74 2.9e-106 1.1e-160 -2.56e+02 -2.56e+02 9.0e-01 8.8e-01 1.00e-01
232 2.0e-74 2.9e-106 1.8e-160 -2.56e+02 -2.56e+02 9.0e-01 8.8e-01 1.00e-01
233 3.9e-75 2.9e-106 3.4e-159 -2.56e+02 -2.56e+02 9.0e-01 8.8e-01 1.00e-01
234 7.9e-76 2.9e-106 7.4e-160 -2.56e+02 -2.56e+02 9.0e-01 8.8e-01 1.00e-01
235 1.6e-76 2.9e-106 8.3e-160 -2.56e+02 -2.56e+02 9.0e-01 8.8e-01 1.00e-01
236 3.1e-77 2.9e-106 7.5e-160 -2.56e+02 -2.56e+02 9.0e-01 8.8e-01 1.00e-01
237 6.3e-78 2.9e-106 4.2e-160 -2.56e+02 -2.56e+02 9.0e-01 8.8e-01 1.00e-01
238 1.3e-78 2.9e-106 2.4e-159 -2.56e+02 -2.56e+02 9.0e-01 8.8e-01 1.00e-01
239 2.5e-79 2.9e-106 3.2e-160 -2.56e+02 -2.56e+02 9.0e-01 8.8e-01 1.00e-01
240 5.0e-80 2.9e-106 1.5e-159 -2.56e+02 -2.56e+02 9.0e-01 8.8e-01 1.00e-01
241 1.0e-80 2.9e-106 6.2e-161 -2.56e+02 -2.56e+02 9.0e-01 8.8e-01 1.00e-01
242 2.0e-81 2.9e-106 1.3e-160 -2.56e+02 -2.56e+02 9.0e-01 8.8e-01 1.00e-01
243 4.0e-82 2.9e-106 3.5e-161 -2.56e+02 -2.56e+02 9.0e-01 8.8e-01 1.00e-01
244 8.1e-83 2.9e-106 1.5e-161 -2.56e+02 -2.56e+02 9.0e-01 8.8e-01 1.00e-01
245 1.6e-83 2.9e-106 7.6e-162 -2.56e+02 -2.56e+02 9.0e-01 8.8e-01 1.00e-01
246 3.2e-84 2.9e-106 6.2e-161 -2.56e+02 -2.56e+02 9.0e-01 8.8e-01 1.00e-01
247 6.4e-85 2.9e-106 1.0e-160 -2.56e+02 -2.56e+02 9.0e-01 8.8e-01 1.00e-01
248 1.3e-85 2.9e-106 7.8e-162 -2.56e+02 -2.56e+02 9.0e-01 8.8e-01 1.00e-01
249 2.6e-86 2.9e-106 2.4e-160 -2.56e+02 -2.56e+02 9.0e-01 8.8e-01 1.00e-01
250 5.2e-87 2.9e-106 2.7e-161 -2.56e+02 -2.56e+02 9.0e-01 8.8e-01 1.00e-01
251 1.0e-87 2.9e-106 1.5e-161 -2.56e+02 -2.56e+02 9.0e-01 8.8e-01 1.00e-01
252 2.1e-88 2.9e-106 9.7e-162 -2.56e+02 -2.56e+02 9.0e-01 8.8e-01 1.00e-01
253 4.1e-89 2.9e-106 2.1e-160 -2.56e+02 -2.56e+02 9.0e-01 8.8e-01 1.00e-01
254 8.3e-90 2.9e-106 3.7e-161 -2.56e+02 -2.56e+02 9.0e-01 8.8e-01 1.00e-01
255 1.7e-90 2.9e-106 3.8e-161 -2.56e+02 -2.56e+02 9.0e-01 8.8e-01 1.00e-01
256 3.3e-91 2.9e-106 1.5e-161 -2.56e+02 -2.56e+02 9.0e-01 8.8e-01 1.00e-01
257 6.6e-92 2.9e-106 2.2e-160 -2.56e+02 -2.56e+02 9.0e-01 8.8e-01 1.00e-01
258 1.3e-92 2.9e-106 8.4e-161 -2.56e+02 -2.56e+02 9.0e-01 8.8e-01 1.00e-01
259 2.6e-93 2.9e-106 1.2e-159 -2.56e+02 -2.56e+02 9.0e-01 8.8e-01 1.00e-01
260 5.3e-94 2.9e-106 4.7e-160 -2.56e+02 -2.56e+02 9.0e-01 8.8e-01 1.00e-01
261 1.1e-94 2.9e-106 8.3e-160 -2.56e+02 -2.56e+02 9.0e-01 8.8e-01 1.00e-01
262 2.1e-95 2.9e-106 1.5e-159 -2.56e+02 -2.56e+02 9.0e-01 8.8e-01 1.00e-01
263 4.2e-96 2.9e-106 6.1e-160 -2.56e+02 -2.56e+02 9.0e-01 8.8e-01 1.00e-01
264 8.5e-97 2.9e-106 8.5e-160 -2.56e+02 -2.56e+02 9.0e-01 8.8e-01 1.00e-01
265 1.7e-97 2.9e-106 3.0e-160 -2.56e+02 -2.56e+02 9.0e-01 8.8e-01 1.00e-01
266 3.4e-98 2.9e-106 8.9e-160 -2.56e+02 -2.56e+02 9.0e-01 8.8e-01 1.00e-01
267 6.8e-99 2.9e-106 1.5e-161 -2.56e+02 -2.56e+02 9.0e-01 8.8e-01 1.00e-01

phase.value = pdOPT     
   Iteration = 267
          mu = 6.7658641330944182e-99
relative gap = 8.9805187928515964e-101
         gap = 4.0595184798566509e-98
      digits = 1.0004669857398251e+02
objValPrimal = -2.5600000000000000e+02
objValDual   = -2.5600000000000000e+02
p.feas.error = 2.8545581846014612e-101
d.feas.error = 2.9833362924800827e-154
relative eps = 7.4583407312002067e-155
total time   = 0.040


Parameters are
maxIteration =    1000
epsilonStar  = 1.000e-100
lambdaStar   = 1.000e+05
omegaStar    = 2.000e+00
lowerBound   = -1.000e+05
upperBound   = 1.000e+05
betaStar     = 1.000e-01
betaBar      = 3.000e-01
gammaStar    = 8.000e-01
epsilonDash  = 1.000e-100
precision    =    512

                         Time(sec)  Ratio(% : MainLoop) 
 Predictor time  =       0.010000,  25.000000
 Corrector time  =       0.010000,  25.000000
 Make bMat time  =       0.000000,  0.000000
 Make bDia time  =       0.000000,  0.000000
 Make bF1  time  =       0.000000,  0.000000
 Make bF2  time  =       0.000000,  0.000000
 Make bF3  time  =       0.000000,  0.000000
 Make bPRE time  =       0.000000,  0.000000
 Make rMat time  =       0.000000,  0.000000
 Make gVec Mul   =       0.000000,  0.000000
 Make gVec time  =       0.010000,  25.000000
 Cholesky bMat   =       0.000000,  0.000000
 Ste Pre time    =       0.000000,  0.000000
 Ste Cor time    =       0.000000,  0.000000
 solve           =       0.010000,  25.000000
 sumDz           =       0.000000,  0.000000
 makedX          =       0.000000,  0.000000
 symmetriseDx    =       0.000000,  0.000000
 makedXdZ        =       0.000000,  0.000000
 xMatTime        =       0.000000,  0.000000
 zMatTime        =       0.000000,  0.000000
 invzMatTime     =       0.000000,  0.000000
 xMatzMatTime    =       0.000000,  0.000000
 EigxMatTime     =       0.000000,  0.000000
 EigzMatTime     =       0.000000,  0.000000
 EigxMatzMatTime =       0.000000,  0.000000
 updateRes       =       0.000000,  0.000000
 EigTime         =       0.000000,  0.000000
 sub_total_bMat  =       0.040000,  100.000000
 Main Loop       =       0.040000,  100.000000
 File Check      =       0.000000,  0.000000
 File Change     =       0.000000,  0.000000
 File Read       =       0.000000,  0.000000
 Total           =       0.040000,  100.000000

xVec = 
{+1.00000000000000000000000000000000000000000000000000000000000000000000000000000000000000000000000000000002268298996573296755969635191285456654085598726658611e+00,+1.2999999999999999999999999999999999999999999999999999999999999999999999999999999999999999999999999998878878138222818981265375064343004347991768396803502501e+02,+1.1999999999999999999999999999999999999999999999999999999999999999999999999999999999999999999999999998888331063764101660590089795096099733102822533521111941e+02,+4.99999999999999999999999999999999999999999999999999999999999999999999999999999999999999999999999999926880364221932006915085388454567222954493311014279808179e+00,+6.89535452214209874721829757984381986576820303865553010612650687424570159438501023953006251705291556214895229326442611748747163936050744451516833811404839459e-101}
xMat = 
{
{+1.78283596095033909097056784983137936665446009482406831373931824399328510985615663670877888109398210861080009075744971390340225379912743779997647716331574284e-99}
{+6.23992586332618681839698747440982778329061033188423909808761385397649788449654822848072608382893738013780031765602880017675340260144022604378979083592294088e-99}
{+1.2479851726652373636793974948819655566581220663768478196175227707952995768993096456961452167657874760275600635319861595642404342820698126464033660401019429e-98}
{+9.74988416144716690374529292876535591139157864356912359076189664683827794452585660700113450598271465646531299632152020472295461582756869866785092620489232644e-101}
{+2.85223279501210180908946044377676137360883377243088572741433665178007164268306190401650848446781197294802981589164916363478954777200659931108206311509226203e-101}
{+2.85682648359803450396453025406631071763791743739630124185644289340508105804695400119806049852197211712076964949430872819370425044154987544641723885495745294e-101}
}
yMat = 
{
{+3.50000000000000000000000000000000000000000000000000000000000000000000000000000000000000000000000000000000000000000000000000000000000000000000000000000000009e+00}
{+1e+00}
{+5.00000000000000000000000000000000000000000000000000000000000000000000000000000000000000000000000000000000000000000000000000000000000000000000000000000000002e-01}
{+6.40000000000000000000000000000000000000000000000000000000000000000000000000000000000000000000000000000000000000000000000000000000000000000000000000000000011e+01}
{+2.74371815839879249673613539662365449416034402459727318947562449672722678463905752669101336244933438751196797581686485951170019537188065169315228942244818676e+02}
{+2.73371815839879249673613539662365449416034402459727318947562449672722678463905752669101336244933438751196797581686485951170019537188065169315228942244818676e+02}
}
    main loop time = 0.040000
        total time = 0.040000
  file   read time = 0.000000
